* ENCODING=ISO-8859-1
NAME          linderoth
ROWS
 N  OBJROW  
 L  R0000000
 L  R0000001
 L  R0000002
 L  R0000003
 G  R0000004
COLUMNS
    MARK0000  'MARKER'                 'INTORG'
    C0000000  OBJROW                         -4
    C0000000  R0000000                        1
    C0000000  R0000002                       -4
    C0000000  R0000003                        1
    C0000001  OBJROW                          1
    C0000001  R0000000                       -1
    C0000001  R0000002                        1
    C0000001  R0000004                        1
    C0000002  OBJROW                         -2
    C0000002  R0000001                        1
    C0000002  R0000003                        1
    C0000003  OBJROW                          2
    C0000003  R0000001                        4
    C0000003  R0000004                        1
    C0000004  OBJROW                         -6
    C0000004  R0000000                        1
    C0000004  R0000001                       -3
    C0000005  OBJROW                          3
    C0000005  R0000000                       -4
    C0000005  R0000001                        1
    C0000005  R0000002                        1
    MARK0001  'MARKER'                 'INTEND'
RHS
    rhs       R0000000                        7
    rhs       R0000001                        4
    rhs       R0000002                        2
    rhs       R0000003                        1
    rhs       R0000004                        1
BOUNDS
 BV bnd       C0000000
 BV bnd       C0000001
 BV bnd       C0000002
 BV bnd       C0000003
 LI bnd       C0000004  0
 LI bnd       C0000005  0
ENDATA
